
Gurobi 11.0.1 (win64) logging started Thu May 16 19:21:30 2024

Set parameter LogFile to value "output/solver_log18.txt"
Gurobi Optimizer version 11.0.1 build v11.0.1rc0 (win64 - Windows 11.0 (22631.2))

CPU model: 11th Gen Intel(R) Core(TM) i7-1165G7 @ 2.80GHz, instruction set [SSE2|AVX|AVX2|AVX512]
Thread count: 4 physical cores, 8 logical processors, using up to 8 threads

Optimize a model with 5587 rows, 1476 columns and 104629 nonzeros
Model fingerprint: 0x5d7007a6
Variable types: 568 continuous, 908 integer (908 binary)
Coefficient statistics:
  Matrix range     [4e-01, 1e+05]
  Objective range  [1e+00, 1e+02]
  Bounds range     [1e+00, 1e+00]
  RHS range        [1e-02, 1e+05]

User MIP start produced solution with objective 93621.4 (0.01s)
User MIP start produced solution with objective 93621.4 (0.01s)
Loaded user MIP start with objective 93621.4

Presolve removed 873 rows and 440 columns
Presolve time: 0.13s
Presolved: 4714 rows, 1036 columns, 89778 nonzeros
Variable types: 533 continuous, 503 integer (498 binary)

Root relaxation: objective 9.473918e+04, 1205 iterations, 0.07 seconds (0.12 work units)

    Nodes    |    Current Node    |     Objective Bounds      |     Work
 Expl Unexpl |  Obj  Depth IntInf | Incumbent    BestBd   Gap | It/Node Time

     0     0 94739.1801    0   10 93621.4190 94739.1801  1.19%     -    0s
     0     0 94069.5460    0   65 93621.4190 94069.5460  0.48%     -    0s
     0     0 93961.4521    0   11 93621.4190 93961.4521  0.36%     -    0s
     0     0 93961.4521    0   51 93621.4190 93961.4521  0.36%     -    0s
     0     0 93961.4521    0    6 93621.4190 93961.4521  0.36%     -    1s
     0     0 93961.4521    0    4 93621.4190 93961.4521  0.36%     -    1s
     0     0 93961.4521    0    4 93621.4190 93961.4521  0.36%     -    1s
     0     0 93961.4521    0    2 93621.4190 93961.4521  0.36%     -    1s
     0     0 93961.4521    0    2 93621.4190 93961.4521  0.36%     -    2s
     0     0 93961.4521    0    2 93621.4190 93961.4521  0.36%     -    2s
     0     2 93961.4521    0    2 93621.4190 93961.4521  0.36%     -    2s
*   65    39              10    93898.219687 93961.4521  0.07%  20.3    2s
 23079    55 93961.4521 5801    1 93898.2197 93961.4521  0.07%   0.1    5s
 88167    55 93961.4521 3937    1 93898.2197 93961.4521  0.07%   0.0   10s
 142953    55 93961.4521 17791    1 93898.2197 93961.4521  0.07%   0.0   15s
 200888    55 93961.4521 23215    1 93898.2197 93961.4521  0.07%   0.0   20s
 247112    55 93961.4521 25591    1 93898.2197 93961.4521  0.07%   0.0   25s
 302594    55 93961.4521 30315    1 93898.2197 93961.4521  0.07%   0.0   30s
 360429    55 93961.4521 44882    1 93898.2197 93961.4521  0.07%   0.0   35s
 416673    55 93961.4521 40671    1 93898.2197 93961.4521  0.07%   0.0   40s
 471940    55 93961.4521 63551    1 93898.2197 93961.4521  0.07%   0.0   45s
 520141    55 93961.4521 66531    1 93898.2197 93961.4521  0.07%   0.0   50s
 577726    55 93961.4521 71811    1 93898.2197 93961.4521  0.07%   0.0   55s
 634862    55 93961.4521 76949    1 93898.2197 93961.4521  0.07%   0.0   60s

Cutting planes:
  MIR: 1

Explored 635153 nodes (6220 simplex iterations) in 60.02 seconds (34.97 work units)
Thread count was 8 (of 8 available processors)

Solution count 2: 93898.2 93621.4 

Time limit reached
Best objective 9.389821968715e+04, best bound 9.396145208343e+04, gap 0.0673%
